p tw 100 13501 2 
1 3 
1 4 
1 5 
1 6 
1 7 
1 8 
1 9 
1 10 
1 11 
1 12 
1 21 
1 26 
1 31 
1 40 
1 41 
1 48 
1 51 
1 59 
1 61 
1 64 
1 71 
1 75 
1 81 
1 83 
1 91 
1 97 
2 3 
2 4 
2 5 
2 6 
2 7 
2 8 
2 9 
2 10 
2 12 
2 18 
2 22 
2 27 
2 32 
2 36 
2 42 
2 49 
2 52 
2 55 
2 62 
2 70 
2 72 
2 73 
2 82 
2 84 
2 91 
2 92 
3 4 
3 5 
3 6 
3 7 
3 8 
3 9 
3 10 
3 13 
3 16 
3 23 
3 30 
3 33 
3 35 
3 43 
3 44 
3 53 
3 58 
3 61 
3 63 
3 73 
3 77 
3 82 
3 83 
3 93 
3 99 
4 5 
4 6 
4 7 
4 8 
4 9 
4 10 
4 13 
4 14 
4 22 
4 24 
4 31 
4 34 
4 44 
4 46 
4 54 
4 60 
4 64 
4 67 
4 74 
4 78 
4 84 
4 89 
4 94 
4 95 
5 6 
5 7 
5 8 
5 9 
5 10 
5 14 
5 15 
5 25 
5 29 
5 33 
5 35 
5 42 
5 45 
5 55 
5 57 
5 65 
5 68 
5 75 
5 80 
5 81 
5 85 
5 95 
5 96 
6 7 
6 8 
6 9 
6 10 
6 15 
6 16 
6 24 
6 26 
6 36 
6 38 
6 46 
6 50 
6 51 
6 56 
6 63 
6 66 
6 76 
6 79 
6 86 
6 87 
6 92 
6 96 
7 8 
7 9 
7 10 
7 11 
7 17 
7 25 
7 27 
7 34 
7 37 
7 43 
7 47 
7 56 
7 57 
7 67 
7 69 
7 72 
7 77 
7 87 
7 88 
7 97 
7 100 
8 9 
8 10 
8 17 
8 18 
8 23 
8 28 
8 38 
8 39 
8 45 
8 48 
8 52 
8 58 
8 66 
8 68 
8 71 
8 78 
8 88 
8 90 
8 94 
8 98 
9 10 
9 19 
9 20 
9 21 
9 29 
9 32 
9 39 
9 47 
9 49 
9 53 
9 59 
9 65 
9 69 
9 74 
9 79 
9 86 
9 89 
9 98 
9 99 
10 19 
10 20 
10 28 
10 30 
10 37 
10 40 
10 41 
10 50 
10 54 
10 60 
10 62 
10 70 
10 76 
10 80 
10 85 
10 90 
10 93 
10 100 
11 12 
11 13 
11 14 
11 15 
11 16 
11 17 
11 18 
11 19 
11 20 
11 21 
11 25 
11 31 
11 34 
11 41 
11 43 
11 51 
11 56 
11 61 
11 69 
11 71 
11 72 
11 81 
11 88 
11 91 
11 100 
12 13 
12 14 
12 15 
12 16 
12 17 
12 18 
12 19 
12 20 
12 22 
12 26 
12 32 
12 40 
12 42 
12 48 
12 52 
12 59 
12 62 
12 64 
12 72 
12 75 
12 82 
12 83 
12 92 
12 97 
13 14 
13 15 
13 16 
13 17 
13 18 
13 19 
13 20 
13 22 
13 23 
13 31 
13 33 
13 43 
13 46 
13 53 
13 60 
13 63 
13 67 
13 73 
13 78 
13 83 
13 89 
13 93 
13 95 
14 15 
14 16 
14 17 
14 18 
14 19 
14 20 
14 24 
14 29 
14 33 
14 34 
14 42 
14 44 
14 54 
14 57 
14 64 
14 68 
14 74 
14 80 
14 81 
14 84 
14 94 
14 96 
15 16 
15 17 
15 18 
15 19 
15 20 
15 24 
15 25 
15 35 
15 38 
15 45 
15 50 
15 51 
15 55 
15 63 
15 65 
15 75 
15 79 
15 85 
15 87 
15 92 
15 95 
16 17 
16 18 
16 19 
16 20 
16 26 
16 30 
16 35 
16 36 
16 44 
16 46 
16 56 
16 58 
16 61 
16 66 
16 76 
16 77 
16 82 
16 86 
16 96 
16 99 
17 18 
17 19 
17 20 
17 23 
17 27 
17 37 
17 39 
17 45 
17 47 
17 52 
17 57 
17 66 
17 67 
17 71 
17 77 
17 87 
17 90 
17 94 
17 97 
18 19 
18 20 
18 27 
18 28 
18 36 
18 38 
18 48 
18 49 
18 55 
18 58 
18 68 
18 70 
18 73 
18 78 
18 84 
18 88 
18 91 
18 98 
19 20 
19 28 
19 29 
19 37 
19 39 
19 41 
19 49 
19 54 
19 59 
19 62 
19 69 
19 76 
19 79 
19 85 
19 89 
19 93 
19 99 
20 21 
20 30 
20 32 
20 40 
20 47 
20 50 
20 53 
20 60 
20 65 
20 70 
20 74 
20 80 
20 86 
20 90 
20 98 
20 100 
21 22 
21 23 
21 24 
21 25 
21 26 
21 27 
21 28 
21 29 
21 30 
21 31 
21 32 
21 41 
21 47 
21 51 
21 53 
21 61 
21 65 
21 71 
21 74 
21 81 
21 86 
21 91 
21 98 
22 23 
22 24 
22 25 
22 26 
22 27 
22 28 
22 29 
22 30 
22 31 
22 32 
22 42 
22 46 
22 52 
22 60 
22 62 
22 67 
22 72 
22 78 
22 82 
22 89 
22 92 
22 95 
23 24 
23 25 
23 26 
23 27 
23 28 
23 29 
23 30 
23 33 
23 39 
23 43 
23 45 
23 52 
23 53 
23 63 
23 66 
23 71 
23 73 
23 83 
23 90 
23 93 
23 94 
24 25 
24 26 
24 27 
24 28 
24 29 
24 30 
24 34 
24 38 
24 44 
24 50 
24 51 
24 54 
24 63 
24 64 
24 74 
24 79 
24 84 
24 87 
24 92 
24 94 
25 26 
25 27 
25 28 
25 29 
25 30 
25 34 
25 35 
25 43 
25 45 
25 55 
25 56 
25 65 
25 69 
25 72 
25 75 
25 85 
25 88 
25 95 
25 100 
26 27 
26 28 
26 29 
26 30 
26 36 
26 40 
26 46 
26 48 
26 56 
26 59 
26 64 
26 66 
26 75 
26 76 
26 83 
26 86 
26 96 
26 97 
27 28 
27 29 
27 30 
27 36 
27 37 
27 47 
27 49 
27 55 
27 57 
27 67 
27 70 
27 73 
27 77 
27 84 
27 87 
27 91 
27 97 
28 29 
28 30 
28 37 
28 38 
28 41 
28 48 
28 54 
28 58 
28 62 
28 68 
28 76 
28 78 
28 85 
28 88 
28 93 
28 98 
29 30 
29 33 
29 39 
29 42 
29 49 
29 57 
29 59 
29 68 
29 69 
29 79 
29 80 
29 81 
29 89 
29 96 
29 99 
30 35 
30 40 
30 44 
30 50 
30 58 
30 60 
30 61 
30 70 
30 77 
30 80 
30 82 
30 90 
30 99 
30 100 
31 32 
31 33 
31 34 
31 35 
31 36 
31 37 
31 38 
31 39 
31 40 
31 41 
31 46 
31 51 
31 60 
31 61 
31 67 
31 71 
31 78 
31 81 
31 89 
31 91 
31 95 
32 33 
32 34 
32 35 
32 36 
32 37 
32 38 
32 39 
32 40 
32 42 
32 47 
32 52 
32 53 
32 62 
32 65 
32 72 
32 74 
32 82 
32 86 
32 92 
32 98 
33 34 
33 35 
33 36 
33 37 
33 38 
33 39 
33 40 
33 42 
33 43 
33 53 
33 57 
33 63 
33 68 
33 73 
33 80 
33 81 
33 83 
33 93 
33 96 
34 35 
34 36 
34 37 
34 38 
34 39 
34 40 
34 43 
34 44 
34 54 
34 56 
34 64 
34 69 
34 72 
34 74 
34 84 
34 88 
34 94 
34 100 
35 36 
35 37 
35 38 
35 39 
35 40 
35 44 
35 45 
35 55 
35 58 
35 61 
35 65 
35 75 
35 77 
35 82 
35 85 
35 95 
35 99 
36 37 
36 38 
36 39 
36 40 
36 46 
36 49 
36 55 
36 56 
36 66 
36 70 
36 73 
36 76 
36 84 
36 86 
36 91 
36 96 
37 38 
37 39 
37 40 
37 41 
37 47 
37 54 
37 57 
37 62 
37 67 
37 76 
37 77 
37 85 
37 87 
37 93 
37 97 
38 39 
38 40 
38 48 
38 50 
38 51 
38 58 
38 63 
38 68 
38 78 
38 79 
38 87 
38 88 
38 92 
38 98 
39 40 
39 45 
39 49 
39 52 
39 59 
39 66 
39 69 
39 71 
39 79 
39 89 
39 90 
39 94 
39 99 
40 48 
40 50 
40 59 
40 60 
40 64 
40 70 
40 75 
40 80 
40 83 
40 90 
40 97 
40 100 
41 42 
41 43 
41 44 
41 45 
41 46 
41 47 
41 48 
41 49 
41 50 
41 51 
41 54 
41 61 
41 62 
41 71 
41 76 
41 81 
41 85 
41 91 
41 93 
42 43 
42 44 
42 45 
42 46 
42 47 
42 48 
42 49 
42 50 
42 52 
42 57 
42 62 
42 68 
42 72 
42 80 
42 81 
42 82 
42 92 
42 96 
43 44 
43 45 
43 46 
43 47 
43 48 
43 49 
43 50 
43 53 
43 56 
43 63 
43 69 
43 72 
43 73 
43 83 
43 88 
43 93 
43 100 
44 45 
44 46 
44 47 
44 48 
44 49 
44 50 
44 54 
44 58 
44 61 
44 64 
44 74 
44 77 
44 82 
44 84 
44 94 
44 99 
45 46 
45 47 
45 48 
45 49 
45 50 
45 52 
45 55 
45 65 
45 66 
45 71 
45 75 
45 85 
45 90 
45 94 
45 95 
46 47 
46 48 
46 49 
46 50 
46 56 
46 60 
46 66 
46 67 
46 76 
46 78 
46 86 
46 89 
46 95 
46 96 
47 48 
47 49 
47 50 
47 53 
47 57 
47 65 
47 67 
47 74 
47 77 
47 86 
47 87 
47 97 
47 98 
48 49 
48 50 
48 58 
48 59 
48 64 
48 68 
48 75 
48 78 
48 83 
48 88 
48 97 
48 98 
49 50 
49 55 
49 59 
49 69 
49 70 
49 73 
49 79 
49 84 
49 89 
49 91 
49 99 
50 51 
50 60 
50 63 
50 70 
50 79 
50 80 
50 87 
50 90 
50 92 
50 100 
51 52 
51 53 
51 54 
51 55 
51 56 
51 57 
51 58 
51 59 
51 60 
51 61 
51 63 
51 71 
51 79 
51 81 
51 87 
51 91 
51 92 
52 53 
52 54 
52 55 
52 56 
52 57 
52 58 
52 59 
52 60 
52 62 
52 66 
52 71 
52 72 
52 82 
52 90 
52 92 
52 94 
53 54 
53 55 
53 56 
53 57 
53 58 
53 59 
53 60 
53 63 
53 65 
53 73 
53 74 
53 83 
53 86 
53 93 
53 98 
54 55 
54 56 
54 57 
54 58 
54 59 
54 60 
54 62 
54 64 
54 74 
54 76 
54 84 
54 85 
54 93 
54 94 
55 56 
55 57 
55 58 
55 59 
55 60 
55 65 
55 70 
55 73 
55 75 
55 84 
55 85 
55 91 
55 95 
56 57 
56 58 
56 59 
56 60 
56 66 
56 69 
56 72 
56 76 
56 86 
56 88 
56 96 
56 100 
57 58 
57 59 
57 60 
57 67 
57 68 
57 77 
57 80 
57 81 
57 87 
57 96 
57 97 
58 59 
58 60 
58 61 
58 68 
58 77 
58 78 
58 82 
58 88 
58 98 
58 99 
59 60 
59 64 
59 69 
59 75 
59 79 
59 83 
59 89 
59 97 
59 99 
60 67 
60 70 
60 78 
60 80 
60 89 
60 90 
60 95 
60 100 
61 62 
61 63 
61 64 
61 65 
61 66 
61 67 
61 68 
61 69 
61 70 
61 71 
61 77 
61 81 
61 82 
61 91 
61 99 
62 63 
62 64 
62 65 
62 66 
62 67 
62 68 
62 69 
62 70 
62 72 
62 76 
62 82 
62 85 
62 92 
62 93 
63 64 
63 65 
63 66 
63 67 
63 68 
63 69 
63 70 
63 73 
63 79 
63 83 
63 87 
63 92 
63 93 
64 65 
64 66 
64 67 
64 68 
64 69 
64 70 
64 74 
64 75 
64 83 
64 84 
64 94 
64 97 
65 66 
65 67 
65 68 
65 69 
65 70 
65 74 
65 75 
65 85 
65 86 
65 95 
65 98 
66 67 
66 68 
66 69 
66 70 
66 71 
66 76 
66 86 
66 90 
66 94 
66 96 
67 68 
67 69 
67 70 
67 77 
67 78 
67 87 
67 89 
67 95 
67 97 
68 69 
68 70 
68 78 
68 80 
68 81 
68 88 
68 96 
68 98 
69 70 
69 72 
69 79 
69 88 
69 89 
69 99 
69 100 
70 73 
70 80 
70 84 
70 90 
70 91 
70 100 
71 72 
71 73 
71 74 
71 75 
71 76 
71 77 
71 78 
71 79 
71 80 
71 81 
71 90 
71 91 
71 94 
72 73 
72 74 
72 75 
72 76 
72 77 
72 78 
72 79 
72 80 
72 82 
72 88 
72 92 
72 100 
73 74 
73 75 
73 76 
73 77 
73 78 
73 79 
73 80 
73 83 
73 84 
73 91 
73 93 
74 75 
74 76 
74 77 
74 78 
74 79 
74 80 
74 84 
74 86 
74 94 
74 98 
75 76 
75 77 
75 78 
75 79 
75 80 
75 83 
75 85 
75 95 
75 97 
76 77 
76 78 
76 79 
76 80 
76 85 
76 86 
76 93 
76 96 
77 78 
77 79 
77 80 
77 82 
77 87 
77 97 
77 99 
78 79 
78 80 
78 88 
78 89 
78 95 
78 98 
79 80 
79 87 
79 89 
79 92 
79 99 
80 81 
80 90 
80 96 
80 100 
81 82 
81 83 
81 84 
81 85 
81 86 
81 87 
81 88 
81 89 
81 90 
81 91 
81 96 
82 83 
82 84 
82 85 
82 86 
82 87 
82 88 
82 89 
82 90 
82 92 
82 99 
83 84 
83 85 
83 86 
83 87 
83 88 
83 89 
83 90 
83 93 
83 97 
84 85 
84 86 
84 87 
84 88 
84 89 
84 90 
84 91 
84 94 
85 86 
85 87 
85 88 
85 89 
85 90 
85 93 
85 95 
86 87 
86 88 
86 89 
86 90 
86 96 
86 98 
87 88 
87 89 
87 90 
87 92 
87 97 
88 89 
88 90 
88 98 
88 100 
89 90 
89 95 
89 99 
90 94 
90 100 
91 92 
91 93 
91 94 
91 95 
91 96 
91 97 
91 98 
91 99 
91 100 
92 93 
92 94 
92 95 
92 96 
92 97 
92 98 
92 99 
92 100 
93 94 
93 95 
93 96 
93 97 
93 98 
93 99 
93 100 
94 95 
94 96 
94 97 
94 98 
94 99 
94 100 
95 96 
95 97 
95 98 
95 99 
95 100 
96 97 
96 98 
96 99 
96 100 
97 98 
97 99 
97 100 
98 99 
98 100 
99 100 
